tsp_instances/TSP20/instance77.tsp
NODE_COORD_SECTION
0 23 164
1 1 138
2 32 62
3 112 138
4 57 53
5 81 184
6 165 1
7 127 47
8 61 159
9 12 169
10 129 115
11 52 29
12 165 51
13 190 62
14 137 190
15 117 21
16 30 185
17 178 80
18 161 90
19 103 114
