tsp_instances/TSP20/instance77.opt.tour
TOUR_SECTION
1
10
2
3
5
12
16
8
7
13
14
18
19
11
20
4
15
6
9
17
-1